[[80, 81, 79, 88, 89, 90, 99, 98, 97, 96, 87, 86, 95, 94, 93, 92, 91, 83, 82, 73, 84, 85, 76, 77, 78, 68, 67, 75, 66, 74, 64, 65, 56, 58, 59, 49, 57, 55, 46, 47, 48, 39, 40, 38, 37, 28, 29, 30, 31], [21, 22, 19, 20, 10, 2, 11, 3, 12, 13, 4, 14, 5, 6, 7, 8, 9, 16, 15, 23, 24, 25, 17, 18, 27, 26, 35, 36, 44, 34, 43, 33, 42, 32, 41, 50, 60, 51, 52, 45, 54, 53, 63, 62, 61, 72, 71, 69, 70]]